p tw 43 48
1 2
2 13
3 4
4 5
5 6
6 7
7 8
8 9
9 10
10 11
11 12
11 14
12 37
13 24
14 15
15 16
16 17
17 18
17 29
18 19
19 20
20 21
21 22
22 23
23 25
24 35
25 26
25 7
26 27
27 28
28 37
29 30
30 31
30 7
31 32
32 37
33 34
34 36
35 39
36 37
37 38
39 40
40 41
40 3
41 42
42 43
42 10
43 33
